(set-option :produce-models true)
(set-option :global-declarations true)
(set-option :produce-unsat-cores true)
(set-option :produce-abducts true)
(set-logic ALL)
(get-info :error-behavior)
(push 1)

(declare-fun x () (_ BitVec 8))
(declare-fun y () (_ BitVec 8))
(define-fun x!0 () (_ BitVec 8) (bvmul x y))
(define-fun x!1 () Bool (= x!0 x))
(define-fun x!2 () Bool (not x!1))
(push 2)
(assert (! x!2 :named x!3))
(check-sat)
(get-value (x))
(get-value (y))
(pop 2)
(get-abduct abd x!1)
(get-abduct-next)
(get-abduct-next)
(pop 1)
(exit)
